
;this file is automatically generated: Thu Jan 02 16:54:47 GMT 2020

;declarations generated

(declare-fun oclExcludes ( Int Int) Bool)
(declare-fun Cardinality ( Int) Int)
(declare-fun obj_f3154433_8709_49c5_b018_ac5419883426 ( Int) Int)
(declare-fun oclSelect ( Int Bool) Int)
(declare-fun Enum0 ( Int) Int)
(declare-fun Enum1 ( Int) Int)
(declare-fun Enum2 ( Int) Int)
(declare-fun type_07986294_6ac6_4b02_a6d7_7efe7fe03542_Class2 ( Int) Bool)
(declare-fun container_ ( Int) Int)
(declare-fun oclIncludes ( Int Int) Bool)
(declare-fun ObjAt ( Int Int) Int)
(declare-fun class2_Class2BoolAttr1 ( Int) Bool)

;formula(s) generated
(assert (! (forall ((v Int)) (=> ( type_07986294_6ac6_4b02_a6d7_7efe7fe03542_Class2 v )  (not ( class2_Class2BoolAttr1 ( obj_f3154433_8709_49c5_b018_ac5419883426 v )  )  ))):named l0))
(assert (exists ((o Int)) ( type_07986294_6ac6_4b02_a6d7_7efe7fe03542_Class2 ( obj_f3154433_8709_49c5_b018_ac5419883426 o )  ) ))

 ;end of formula 